293 278 8
0 1 0
1 2 0
2 3 0
3 4 0
4 5 0
5 6 0
6 7 0
7 8 0
8 9 0
9 10 0
10 11 0
11 12 0
12 13 0
13 14 0
15 16 1
16 17 1
17 18 1
18 19 1
19 20 1
20 21 1
21 22 1
22 23 1
23 24 1
24 25 1
25 26 1
26 27 1
27 28 1
28 29 1
29 30 1
30 31 1
31 32 1
32 33 1
33 34 1
35 36 2
36 37 2
37 38 2
38 39 2
39 40 2
40 41 2
41 42 2
42 43 2
43 44 2
44 45 2
45 46 2
46 47 2
47 48 2
48 49 2
49 50 2
50 51 2
51 52 2
52 53 2
53 54 2
54 55 2
55 56 2
56 57 2
58 59 3
59 60 3
60 61 3
61 62 3
62 63 3
63 64 3
64 65 3
65 66 3
66 67 3
67 68 3
68 69 3
69 70 3
70 71 3
71 72 3
72 73 3
73 74 3
74 75 3
76 77 4
77 78 4
78 79 4
79 80 4
80 81 4
81 82 4
82 83 4
83 84 4
84 85 4
85 86 4
86 87 4
87 88 4
88 89 4
89 90 4
90 91 4
91 92 4
92 93 4
93 94 4
94 95 4
95 96 4
97 98 5
98 99 5
99 100 5
100 101 5
101 102 5
102 103 5
103 104 5
104 105 5
105 106 5
106 107 5
107 108 5
108 109 5
109 110 5
110 111 5
112 113 6
113 114 6
114 115 6
115 116 6
116 117 6
117 118 6
118 119 6
119 120 6
120 121 6
121 122 6
122 123 6
123 124 6
124 125 6
125 126 6
126 127 6
127 128 6
129 130 7
130 131 7
131 132 7
132 133 7
133 134 7
134 135 7
135 136 7
136 137 7
137 138 7
138 139 7
139 140 7
140 141 7
141 142 7
142 143 7
143 144 7
144 145 7
145 146 7
146 147 7
147 148 7
148 149 7
149 150 7
150 151 7
151 152 7
152 153 7
154 155 8
155 156 8
156 157 8
157 158 8
158 159 8
159 160 8
160 161 8
161 162 8
162 163 8
163 164 8
164 165 8
165 166 8
166 167 8
167 168 8
168 169 8
169 170 8
170 171 8
171 172 8
172 173 8
173 174 8
174 175 8
175 176 8
177 178 9
178 179 9
179 180 9
180 181 9
181 182 9
182 183 9
183 184 9
184 185 9
185 186 9
186 187 9
187 188 9
188 189 9
189 190 9
190 191 9
191 192 9
192 193 9
193 194 9
194 195 9
196 197 10
197 198 10
198 199 10
199 200 10
200 201 10
201 202 10
202 203 10
203 204 10
204 205 10
205 206 10
206 207 10
207 208 10
208 209 10
209 210 10
210 211 10
211 212 10
212 213 10
213 214 10
215 216 11
216 217 11
217 218 11
218 219 11
219 220 11
220 221 11
221 222 11
222 223 11
223 224 11
224 225 11
225 226 11
226 227 11
227 228 11
228 229 11
229 230 11
230 231 11
231 232 11
232 233 11
233 234 11
234 235 11
236 237 12
237 238 12
238 239 12
239 240 12
240 241 12
241 242 12
242 243 12
243 244 12
244 245 12
245 246 12
246 247 12
247 248 12
248 249 12
249 250 12
250 251 12
252 253 13
253 254 13
254 255 13
255 256 13
256 257 13
257 258 13
258 259 13
259 260 13
260 261 13
261 262 13
262 263 13
263 264 13
264 265 13
265 266 13
266 267 13
268 269 14
269 270 14
270 271 14
271 272 14
272 273 14
273 274 14
274 275 14
275 276 14
276 277 14
277 278 14
278 279 14
279 280 14
280 281 14
281 282 14
282 283 14
283 284 14
284 285 14
285 286 14
286 287 14
287 288 14
288 289 14
289 290 14
290 291 14
291 292 14
1 3 24
1 7 63
1 0 29
1 3 83
1 6 23
2 0 66 2 66
1 7 29
3 3 11 4 11 5 11
1 7 62
1 5 94
1 0 41
1 4 90
3 1 63 4 63 5 63
1 3 45
1 0 91
1 5 73
1 5 31
1 2 97
3 2 11 6 11 7 11
1 2 20
1 0 90
1 6 21
1 7 78
1 4 37
1 6 68
1 3 48
3 2 55 5 55 6 55
1 2 38
1 1 49
1 0 69
1 5 73
1 6 80
1 5 83
1 6 39
1 2 98
1 0 71
2 0 24 3 24
3 3 89 4 89 5 89
1 4 73
1 4 44
2 2 61 4 61
1 5 53
4 0 35 3 35 4 35 7 35
1 5 95
1 7 33
1 4 59
1 1 68
1 2 61
1 3 56
1 4 28
1 1 18
2 1 35 5 35
1 6 73
3 1 78 3 78 6 78
2 1 70 3 70
1 0 65
1 6 44
1 2 56
1 6 60
1 5 69
1 6 94
1 4 28
1 3 63
1 1 17
1 1 61
1 5 34
1 5 96
2 3 31 6 31
1 4 82
1 0 40
1 0 63
2 0 95 3 95
1 4 68
1 5 91
1 1 43
1 6 32
1 4 54
2 4 92 7 92
3 1 40 4 40 6 40
1 4 84
1 4 38
1 7 94
1 4 63
1 5 99
2 0 45 1 45
1 6 28
1 7 59
1 4 97
1 4 69
1 5 61
3 3 98 4 98 7 98
1 6 42
1 5 100
1 3 68
2 1 83 2 83
1 6 69
1 4 17
1 3 26
1 3 29
2 4 20 6 20
1 0 100
2 1 87 7 87
2 3 67 7 67
2 4 16 5 16
1 3 86
1 1 36
1 7 73
1 2 41
1 2 100
1 5 23
1 6 33
1 5 92
1 4 74
1 2 90
1 1 49
1 5 34
1 5 47
1 3 62
1 3 59
1 4 98
1 2 73
1 0 79
1 5 10
1 4 32
2 6 55 7 55
1 3 53
1 4 19
1 3 55
2 4 88 5 88
1 4 46
1 6 73
1 7 30
1 3 48
1 0 50
1 4 37
1 3 75
1 3 36
1 7 71
1 7 66
1 3 39
1 7 17
1 4 30
1 2 42
1 7 94
1 0 59
1 4 36
1 0 68
1 1 21
1 6 25
1 6 65
1 2 58
3 0 65 2 65 6 65
3 5 36 6 36 7 36
3 0 45 1 45 4 45
1 3 82
1 0 42
1 4 82
1 1 51
1 7 75
1 5 35
1 7 78
1 6 43
2 4 77 6 77
1 7 42
1 3 18
2 0 63 7 63
1 6 99
1 0 16
2 5 34 7 34
1 2 99
1 6 87
1 5 46
1 3 81
1 5 41
2 0 58 5 58
1 6 57
1 0 30
1 3 60
1 2 52
3 3 92 5 92 6 92
2 4 32 5 32
1 4 80
3 2 42 5 42 6 42
1 6 33
1 3 40
1 0 80
1 0 72
2 2 64 5 64
1 4 77
1 1 23
1 2 50
1 5 13
1 1 38
2 3 21 6 21
1 5 77
1 2 95
1 7 60
1 5 94
1 3 53
1 3 82
2 1 60 7 60
1 5 60
2 1 93 5 93
1 3 49
1 3 82
1 7 68
1 6 42
1 0 96
1 5 90
1 4 36
1 6 70
1 2 12
1 3 56
1 5 14
1 2 60
1 3 18
1 7 88
1 2 19
1 0 87
1 0 50
1 3 50
1 3 63
2 6 16 7 16
1 5 65
2 2 71 5 71
3 3 44 4 44 6 44
1 5 46
1 1 35
2 0 11 5 11
1 1 83
1 0 12
1 3 98
1 7 25
1 7 84
1 5 36
4 0 41 4 41 6 41 7 41
1 0 44
1 1 51
1 0 58
1 1 56
1 0 27
1 5 97
2 1 93 3 93
3 0 41 2 41 4 41
1 3 59
1 2 83
1 3 99
1 0 90
1 2 90
1 0 58
1 6 15
1 2 95
1 3 65
3 0 73 4 73 5 73
1 6 96
1 7 42
1 3 53
1 1 61
1 7 24
1 5 90
1 0 11
2 0 12 5 12
1 5 68
1 4 61
1 2 40
1 1 70
1 3 76
1 4 48
1 3 19
1 6 49
1 4 76
1 1 24
1 5 35
1 2 10
1 1 46
1 6 18
1 4 72
2 1 32 5 32
2 0 92 2 92
1 7 14
1 1 53
1 1 49
2 5 83 7 83
1 1 81
1 2 76
1 6 88
1 4 34
1 0 54
1 5 22
1 2 47
1 1 31
1 2 43
1 6 29